p cnf 250 2754
1 2 3 4 5 0
6 7 8 9 10 0
11 12 13 14 15 0
16 17 18 19 20 0
21 22 23 24 25 0
26 27 28 29 30 0
31 32 33 34 35 0
36 37 38 39 40 0
41 42 43 44 45 0
46 47 48 49 50 0
51 52 53 54 55 0
56 57 58 59 60 0
61 62 63 64 65 0
66 67 68 69 70 0
71 72 73 74 75 0
76 77 78 79 80 0
81 82 83 84 85 0
86 87 88 89 90 0
91 92 93 94 95 0
96 97 98 99 100 0
101 102 103 104 105 0
106 107 108 109 110 0
111 112 113 114 115 0
116 117 118 119 120 0
121 122 123 124 125 0
126 127 128 129 130 0
131 132 133 134 135 0
136 137 138 139 140 0
141 142 143 144 145 0
146 147 148 149 150 0
151 152 153 154 155 0
156 157 158 159 160 0
161 162 163 164 165 0
166 167 168 169 170 0
171 172 173 174 175 0
176 177 178 179 180 0
181 182 183 184 185 0
186 187 188 189 190 0
191 192 193 194 195 0
196 197 198 199 200 0
201 202 203 204 205 0
206 207 208 209 210 0
211 212 213 214 215 0
216 217 218 219 220 0
221 222 223 224 225 0
226 227 228 229 230 0
231 232 233 234 235 0
236 237 238 239 240 0
241 242 243 244 245 0
246 247 248 249 250 0
-1 -2 0
-1 -3 0
-1 -4 0
-1 -5 0
-2 -3 0
-2 -4 0
-2 -5 0
-3 -4 0
-3 -5 0
-4 -5 0
-6 -7 0
-6 -8 0
-6 -9 0
-6 -10 0
-7 -8 0
-7 -9 0
-7 -10 0
-8 -9 0
-8 -10 0
-9 -10 0
-11 -12 0
-11 -13 0
-11 -14 0
-11 -15 0
-12 -13 0
-12 -14 0
-12 -15 0
-13 -14 0
-13 -15 0
-14 -15 0
-16 -17 0
-16 -18 0
-16 -19 0
-16 -20 0
-17 -18 0
-17 -19 0
-17 -20 0
-18 -19 0
-18 -20 0
-19 -20 0
-21 -22 0
-21 -23 0
-21 -24 0
-21 -25 0
-22 -23 0
-22 -24 0
-22 -25 0
-23 -24 0
-23 -25 0
-24 -25 0
-26 -27 0
-26 -28 0
-26 -29 0
-26 -30 0
-27 -28 0
-27 -29 0
-27 -30 0
-28 -29 0
-28 -30 0
-29 -30 0
-31 -32 0
-31 -33 0
-31 -34 0
-31 -35 0
-32 -33 0
-32 -34 0
-32 -35 0
-33 -34 0
-33 -35 0
-34 -35 0
-36 -37 0
-36 -38 0
-36 -39 0
-36 -40 0
-37 -38 0
-37 -39 0
-37 -40 0
-38 -39 0
-38 -40 0
-39 -40 0
-41 -42 0
-41 -43 0
-41 -44 0
-41 -45 0
-42 -43 0
-42 -44 0
-42 -45 0
-43 -44 0
-43 -45 0
-44 -45 0
-46 -47 0
-46 -48 0
-46 -49 0
-46 -50 0
-47 -48 0
-47 -49 0
-47 -50 0
-48 -49 0
-48 -50 0
-49 -50 0
-51 -52 0
-51 -53 0
-51 -54 0
-51 -55 0
-52 -53 0
-52 -54 0
-52 -55 0
-53 -54 0
-53 -55 0
-54 -55 0
-56 -57 0
-56 -58 0
-56 -59 0
-56 -60 0
-57 -58 0
-57 -59 0
-57 -60 0
-58 -59 0
-58 -60 0
-59 -60 0
-61 -62 0
-61 -63 0
-61 -64 0
-61 -65 0
-62 -63 0
-62 -64 0
-62 -65 0
-63 -64 0
-63 -65 0
-64 -65 0
-66 -67 0
-66 -68 0
-66 -69 0
-66 -70 0
-67 -68 0
-67 -69 0
-67 -70 0
-68 -69 0
-68 -70 0
-69 -70 0
-71 -72 0
-71 -73 0
-71 -74 0
-71 -75 0
-72 -73 0
-72 -74 0
-72 -75 0
-73 -74 0
-73 -75 0
-74 -75 0
-76 -77 0
-76 -78 0
-76 -79 0
-76 -80 0
-77 -78 0
-77 -79 0
-77 -80 0
-78 -79 0
-78 -80 0
-79 -80 0
-81 -82 0
-81 -83 0
-81 -84 0
-81 -85 0
-82 -83 0
-82 -84 0
-82 -85 0
-83 -84 0
-83 -85 0
-84 -85 0
-86 -87 0
-86 -88 0
-86 -89 0
-86 -90 0
-87 -88 0
-87 -89 0
-87 -90 0
-88 -89 0
-88 -90 0
-89 -90 0
-91 -92 0
-91 -93 0
-91 -94 0
-91 -95 0
-92 -93 0
-92 -94 0
-92 -95 0
-93 -94 0
-93 -95 0
-94 -95 0
-96 -97 0
-96 -98 0
-96 -99 0
-96 -100 0
-97 -98 0
-97 -99 0
-97 -100 0
-98 -99 0
-98 -100 0
-99 -100 0
-101 -102 0
-101 -103 0
-101 -104 0
-101 -105 0
-102 -103 0
-102 -104 0
-102 -105 0
-103 -104 0
-103 -105 0
-104 -105 0
-106 -107 0
-106 -108 0
-106 -109 0
-106 -110 0
-107 -108 0
-107 -109 0
-107 -110 0
-108 -109 0
-108 -110 0
-109 -110 0
-111 -112 0
-111 -113 0
-111 -114 0
-111 -115 0
-112 -113 0
-112 -114 0
-112 -115 0
-113 -114 0
-113 -115 0
-114 -115 0
-116 -117 0
-116 -118 0
-116 -119 0
-116 -120 0
-117 -118 0
-117 -119 0
-117 -120 0
-118 -119 0
-118 -120 0
-119 -120 0
-121 -122 0
-121 -123 0
-121 -124 0
-121 -125 0
-122 -123 0
-122 -124 0
-122 -125 0
-123 -124 0
-123 -125 0
-124 -125 0
-126 -127 0
-126 -128 0
-126 -129 0
-126 -130 0
-127 -128 0
-127 -129 0
-127 -130 0
-128 -129 0
-128 -130 0
-129 -130 0
-131 -132 0
-131 -133 0
-131 -134 0
-131 -135 0
-132 -133 0
-132 -134 0
-132 -135 0
-133 -134 0
-133 -135 0
-134 -135 0
-136 -137 0
-136 -138 0
-136 -139 0
-136 -140 0
-137 -138 0
-137 -139 0
-137 -140 0
-138 -139 0
-138 -140 0
-139 -140 0
-141 -142 0
-141 -143 0
-141 -144 0
-141 -145 0
-142 -143 0
-142 -144 0
-142 -145 0
-143 -144 0
-143 -145 0
-144 -145 0
-146 -147 0
-146 -148 0
-146 -149 0
-146 -150 0
-147 -148 0
-147 -149 0
-147 -150 0
-148 -149 0
-148 -150 0
-149 -150 0
-151 -152 0
-151 -153 0
-151 -154 0
-151 -155 0
-152 -153 0
-152 -154 0
-152 -155 0
-153 -154 0
-153 -155 0
-154 -155 0
-156 -157 0
-156 -158 0
-156 -159 0
-156 -160 0
-157 -158 0
-157 -159 0
-157 -160 0
-158 -159 0
-158 -160 0
-159 -160 0
-161 -162 0
-161 -163 0
-161 -164 0
-161 -165 0
-162 -163 0
-162 -164 0
-162 -165 0
-163 -164 0
-163 -165 0
-164 -165 0
-166 -167 0
-166 -168 0
-166 -169 0
-166 -170 0
-167 -168 0
-167 -169 0
-167 -170 0
-168 -169 0
-168 -170 0
-169 -170 0
-171 -172 0
-171 -173 0
-171 -174 0
-171 -175 0
-172 -173 0
-172 -174 0
-172 -175 0
-173 -174 0
-173 -175 0
-174 -175 0
-176 -177 0
-176 -178 0
-176 -179 0
-176 -180 0
-177 -178 0
-177 -179 0
-177 -180 0
-178 -179 0
-178 -180 0
-179 -180 0
-181 -182 0
-181 -183 0
-181 -184 0
-181 -185 0
-182 -183 0
-182 -184 0
-182 -185 0
-183 -184 0
-183 -185 0
-184 -185 0
-186 -187 0
-186 -188 0
-186 -189 0
-186 -190 0
-187 -188 0
-187 -189 0
-187 -190 0
-188 -189 0
-188 -190 0
-189 -190 0
-191 -192 0
-191 -193 0
-191 -194 0
-191 -195 0
-192 -193 0
-192 -194 0
-192 -195 0
-193 -194 0
-193 -195 0
-194 -195 0
-196 -197 0
-196 -198 0
-196 -199 0
-196 -200 0
-197 -198 0
-197 -199 0
-197 -200 0
-198 -199 0
-198 -200 0
-199 -200 0
-201 -202 0
-201 -203 0
-201 -204 0
-201 -205 0
-202 -203 0
-202 -204 0
-202 -205 0
-203 -204 0
-203 -205 0
-204 -205 0
-206 -207 0
-206 -208 0
-206 -209 0
-206 -210 0
-207 -208 0
-207 -209 0
-207 -210 0
-208 -209 0
-208 -210 0
-209 -210 0
-211 -212 0
-211 -213 0
-211 -214 0
-211 -215 0
-212 -213 0
-212 -214 0
-212 -215 0
-213 -214 0
-213 -215 0
-214 -215 0
-216 -217 0
-216 -218 0
-216 -219 0
-216 -220 0
-217 -218 0
-217 -219 0
-217 -220 0
-218 -219 0
-218 -220 0
-219 -220 0
-221 -222 0
-221 -223 0
-221 -224 0
-221 -225 0
-222 -223 0
-222 -224 0
-222 -225 0
-223 -224 0
-223 -225 0
-224 -225 0
-226 -227 0
-226 -228 0
-226 -229 0
-226 -230 0
-227 -228 0
-227 -229 0
-227 -230 0
-228 -229 0
-228 -230 0
-229 -230 0
-231 -232 0
-231 -233 0
-231 -234 0
-231 -235 0
-232 -233 0
-232 -234 0
-232 -235 0
-233 -234 0
-233 -235 0
-234 -235 0
-236 -237 0
-236 -238 0
-236 -239 0
-236 -240 0
-237 -238 0
-237 -239 0
-237 -240 0
-238 -239 0
-238 -240 0
-239 -240 0
-241 -242 0
-241 -243 0
-241 -244 0
-241 -245 0
-242 -243 0
-242 -244 0
-242 -245 0
-243 -244 0
-243 -245 0
-244 -245 0
-246 -247 0
-246 -248 0
-246 -249 0
-246 -250 0
-247 -248 0
-247 -249 0
-247 -250 0
-248 -249 0
-248 -250 0
-249 -250 0
-1 -8 0
-4 -7 0
-2 -20 0
-2 -17 0
-5 -26 0
-4 -27 0
-4 -33 0
-3 -34 0
-1 -40 0
-3 -39 0
-1 -43 0
-5 -43 0
-2 -46 0
-3 -50 0
-5 -55 0
-2 -54 0
-5 -60 0
-5 -59 0
-3 -62 0
-5 -62 0
-2 -69 0
-5 -66 0
-1 -77 0
-2 -79 0
-3 -82 0
-5 -83 0
-1 -89 0
-5 -90 0
-3 -94 0
-3 -93 0
-1 -100 0
-3 -100 0
-2 -103 0
-5 -101 0
-1 -108 0
-4 -106 0
-1 -113 0
-4 -111 0
-1 -117 0
-1 -118 0
-5 -127 0
-2 -128 0
-3 -131 0
-5 -132 0
-3 -137 0
-1 -139 0
-2 -141 0
-1 -142 0
-1 -152 0
-2 -152 0
-2 -160 0
-5 -158 0
-3 -163 0
-3 -162 0
-5 -168 0
-1 -166 0
-5 -175 0
-2 -171 0
-2 -176 0
-1 -180 0
-3 -185 0
-1 -183 0
-4 -187 0
-2 -188 0
-2 -193 0
-3 -192 0
-2 -199 0
-1 -196 0
-4 -210 0
-1 -210 0
-1 -211 0
-2 -213 0
-4 -217 0
-1 -219 0
-2 -222 0
-2 -223 0
-3 -229 0
-5 -230 0
-5 -234 0
-5 -231 0
-2 -236 0
-5 -238 0
-2 -242 0
-3 -244 0
-1 -250 0
-1 -248 0
-7 -15 0
-6 -13 0
-6 -18 0
-8 -17 0
-7 -29 0
-10 -29 0
-8 -34 0
-9 -32 0
-10 -39 0
-7 -36 0
-6 -44 0
-6 -43 0
-9 -46 0
-7 -46 0
-8 -51 0
-9 -55 0
-8 -60 0
-9 -56 0
-7 -64 0
-10 -65 0
-8 -70 0
-9 -66 0
-10 -71 0
-9 -71 0
-6 -80 0
-7 -76 0
-9 -83 0
-6 -82 0
-7 -89 0
-10 -86 0
-7 -91 0
-7 -94 0
-10 -96 0
-6 -100 0
-6 -101 0
-9 -101 0
-7 -106 0
-10 -108 0
-8 -120 0
-10 -118 0
-7 -124 0
-8 -125 0
-8 -126 0
-10 -130 0
-8 -131 0
-10 -134 0
-9 -137 0
-8 -138 0
-9 -144 0
-8 -145 0
-7 -146 0
-10 -148 0
-9 -155 0
-9 -152 0
-6 -160 0
-7 -157 0
-10 -162 0
-6 -161 0
-9 -168 0
-10 -169 0
-7 -173 0
-10 -174 0
-8 -179 0
-6 -176 0
-6 -183 0
-7 -181 0
-10 -188 0
-8 -188 0
-9 -194 0
-10 -195 0
-8 -196 0
-9 -197 0
-7 -203 0
-8 -201 0
-8 -210 0
-8 -208 0
-9 -212 0
-8 -211 0
-10 -220 0
-8 -219 0
-6 -228 0
-9 -229 0
-9 -234 0
-8 -234 0
-8 -239 0
-6 -240 0
-10 -243 0
-8 -244 0
-9 -248 0
-9 -246 0
-13 -16 0
-13 -17 0
-11 -22 0
-11 -23 0
-12 -30 0
-15 -29 0
-15 -33 0
-14 -32 0
-11 -36 0
-14 -39 0
-15 -43 0
-12 -44 0
-13 -50 0
-11 -48 0
-14 -54 0
-14 -55 0
-13 -57 0
-12 -57 0
-11 -64 0
-12 -63 0
-13 -66 0
-13 -70 0
-12 -71 0
-11 -75 0
-11 -77 0
-15 -78 0
-12 -82 0
-13 -81 0
-15 -86 0
-13 -87 0
-14 -92 0
-12 -94 0
-15 -100 0
-13 -97 0
-12 -103 0
-15 -103 0
-14 -109 0
-13 -109 0
-12 -114 0
-15 -115 0
-15 -119 0
-14 -119 0
-15 -125 0
-12 -121 0
-11 -130 0
-13 -127 0
-13 -131 0
-12 -134 0
-11 -139 0
-11 -138 0
-13 -141 0
-12 -142 0
-14 -148 0
-15 -146 0
-11 -154 0
-14 -152 0
-13 -162 0
-14 -164 0
-14 -168 0
-11 -170 0
-14 -174 0
-15 -172 0
-13 -178 0
-14 -178 0
-12 -181 0
-13 -185 0
-11 -188 0
-12 -189 0
-13 -191 0
-11 -192 0
-12 -197 0
-13 -200 0
-11 -206 0
-15 -210 0
-12 -214 0
-14 -211 0
-14 -221 0
-15 -225 0
-15 -227 0
-11 -230 0
-13 -234 0
-14 -234 0
-12 -239 0
-13 -240 0
-15 -242 0
-15 -241 0
-12 -250 0
-15 -249 0
-17 -25 0
-16 -22 0
-16 -30 0
-19 -28 0
-18 -35 0
-20 -33 0
-17 -40 0
-18 -37 0
-20 -45 0
-16 -44 0
-18 -46 0
-20 -49 0
-18 -54 0
-19 -52 0
-16 -58 0
-19 -58 0
-18 -61 0
-16 -63 0
-19 -67 0
-18 -70 0
-16 -73 0
-19 -73 0
-20 -78 0
-18 -76 0
-18 -83 0
-17 -82 0
-16 -100 0
-19 -100 0
-19 -103 0
-16 -102 0
-19 -108 0
-17 -110 0
-18 -113 0
-18 -114 0
-17 -120 0
-17 -117 0
-18 -124 0
-20 -124 0
-16 -126 0
-19 -129 0
-17 -132 0
-20 -131 0
-16 -139 0
-19 -139 0
-16 -143 0
-17 -141 0
-18 -147 0
-17 -147 0
-16 -154 0
-18 -153 0
-16 -158 0
-18 -159 0
-20 -162 0
-17 -165 0
-17 -167 0
-20 -170 0
-20 -174 0
-18 -174 0
-20 -178 0
-16 -179 0
-20 -183 0
-19 -182 0
-16 -189 0
-16 -188 0
-20 -192 0
-17 -191 0
-17 -200 0
-19 -200 0
-17 -201 0
-16 -201 0
-16 -208 0
-19 -210 0
-18 -215 0
-18 -212 0
-16 -220 0
-16 -219 0
-20 -224 0
-20 -221 0
-20 -229 0
-20 -227 0
-17 -234 0
-20 -234 0
-20 -236 0
-17 -239 0
-17 -244 0
-19 -245 0
-19 -247 0
-19 -250 0
-24 -26 0
-24 -30 0
-23 -36 0
-22 -40 0
-22 -43 0
-25 -43 0
-23 -49 0
-21 -49 0
-21 -53 0
-24 -51 0
-25 -58 0
-24 -57 0
-23 -64 0
-23 -63 0
-22 -66 0
-22 -68 0
-22 -73 0
-23 -72 0
-22 -80 0
-21 -80 0
-23 -83 0
-25 -81 0
-22 -87 0
-23 -87 0
-25 -91 0
-23 -93 0
-24 -98 0
-24 -96 0
-22 -101 0
-22 -105 0
-22 -109 0
-21 -109 0
-24 -114 0
-23 -115 0
-22 -118 0
-25 -118 0
-25 -123 0
-21 -121 0
-22 -128 0
-21 -127 0
-21 -135 0
-24 -135 0
-22 -138 0
-24 -138 0
-23 -145 0
-22 -144 0
-21 -148 0
-24 -147 0
-24 -155 0
-22 -151 0
-23 -159 0
-22 -159 0
-22 -163 0
-21 -165 0
-25 -170 0
-22 -169 0
-22 -175 0
-25 -172 0
-22 -177 0
-22 -180 0
-25 -182 0
-24 -184 0
-22 -190 0
-24 -190 0
-22 -196 0
-24 -197 0
-22 -209 0
-22 -206 0
-22 -213 0
-25 -215 0
-22 -218 0
-23 -219 0
-21 -228 0
-25 -226 0
-23 -233 0
-22 -235 0
-24 -240 0
-23 -236 0
-23 -242 0
-25 -241 0
-21 -246 0
-25 -247 0
-29 -36 0
-27 -37 0
-28 -42 0
-30 -42 0
-26 -50 0
-30 -46 0
-26 -53 0
-26 -52 0
-26 -60 0
-30 -57 0
-29 -65 0
-28 -65 0
-28 -67 0
-29 -67 0
-26 -80 0
-30 -80 0
-30 -85 0
-29 -83 0
-29 -95 0
-30 -95 0
-29 -99 0
-28 -97 0
-28 -102 0
-27 -101 0
-28 -110 0
-26 -110 0
-29 -118 0
-27 -119 0
-26 -125 0
-27 -123 0
-29 -126 0
-26 -130 0
-27 -136 0
-29 -136 0
-26 -145 0
-27 -141 0
-28 -150 0
-29 -147 0
-26 -155 0
-27 -153 0
-28 -156 0
-26 -160 0
-27 -169 0
-29 -169 0
-28 -175 0
-29 -173 0
-28 -182 0
-29 -181 0
-29 -189 0
-26 -189 0
-26 -193 0
-29 -195 0
-27 -196 0
-27 -199 0
-26 -202 0
-30 -202 0
-27 -207 0
-29 -208 0
-29 -214 0
-30 -212 0
-26 -217 0
-28 -217 0
-29 -225 0
-27 -222 0
-26 -230 0
-27 -226 0
-27 -235 0
-28 -234 0
-28 -242 0
-26 -245 0
-30 -246 0
-27 -248 0
-32 -45 0
-33 -41 0
-35 -47 0
-33 -47 0
-32 -59 0
-35 -58 0
-34 -62 0
-31 -61 0
-31 -75 0
-31 -71 0
-32 -77 0
-35 -80 0
-31 -86 0
-33 -89 0
-35 -92 0
-32 -94 0
-33 -97 0
-34 -97 0
-35 -103 0
-35 -101 0
-35 -110 0
-33 -108 0
-33 -114 0
-32 -111 0
-35 -119 0
-35 -120 0
-33 -124 0
-31 -122 0
-33 -128 0
-32 -129 0
-34 -132 0
-33 -135 0
-31 -140 0
-34 -139 0
-31 -145 0
-33 -141 0
-31 -149 0
-33 -148 0
-34 -154 0
-35 -152 0
-32 -160 0
-34 -156 0
-34 -163 0
-32 -162 0
-32 -169 0
-32 -168 0
-33 -173 0
-34 -172 0
-32 -179 0
-33 -179 0
-32 -184 0
-33 -185 0
-34 -186 0
-33 -187 0
-34 -191 0
-33 -195 0
-35 -202 0
-32 -201 0
-35 -209 0
-31 -209 0
-32 -213 0
-33 -214 0
-33 -216 0
-35 -217 0
-31 -224 0
-33 -222 0
-32 -230 0
-35 -228 0
-34 -233 0
-35 -234 0
-35 -237 0
-31 -240 0
-33 -241 0
-32 -245 0
-32 -246 0
-34 -247 0
-38 -43 0
-39 -42 0
-37 -47 0
-36 -46 0
-36 -52 0
-36 -51 0
-39 -65 0
-36 -64 0
-39 -66 0
-37 -66 0
-40 -72 0
-36 -72 0
-40 -77 0
-39 -76 0
-40 -83 0
-36 -85 0
-39 -89 0
-36 -88 0
-38 -95 0
-40 -91 0
-38 -100 0
-37 -100 0
-39 -103 0
-36 -105 0
-40 -108 0
-40 -110 0
-39 -112 0
-39 -114 0
-38 -116 0
-40 -119 0
-37 -121 0
-37 -123 0
-39 -129 0
-40 -126 0
-40 -131 0
-39 -133 0
-36 -136 0
-36 -138 0
-40 -145 0
-36 -141 0
-37 -146 0
-38 -148 0
-38 -155 0
-37 -151 0
-37 -164 0
-36 -162 0
-38 -166 0
-37 -169 0
-40 -174 0
-39 -175 0
-38 -179 0
-39 -177 0
-37 -183 0
-39 -185 0
-40 -187 0
-39 -187 0
-40 -195 0
-37 -192 0
-39 -199 0
-36 -196 0
-36 -202 0
-39 -204 0
-40 -210 0
-39 -209 0
-38 -214 0
-36 -214 0
-38 -218 0
-37 -219 0
-36 -222 0
-38 -222 0
-37 -231 0
-36 -232 0
-37 -236 0
-37 -240 0
-40 -244 0
-38 -241 0
-38 -247 0
-39 -246 0
-41 -46 0
-45 -46 0
-42 -52 0
-44 -51 0
-41 -59 0
-44 -58 0
-41 -66 0
-44 -69 0
-43 -71 0
-43 -75 0
-42 -78 0
-42 -77 0
-45 -82 0
-44 -85 0
-44 -89 0
-45 -90 0
-44 -92 0
-44 -93 0
-45 -98 0
-45 -96 0
-45 -101 0
-44 -102 0
-44 -108 0
-41 -106 0
-41 -119 0
-42 -117 0
-44 -126 0
-44 -128 0
-43 -135 0
-41 -132 0
-44 -136 0
-45 -140 0
-42 -141 0
-41 -141 0
-44 -146 0
-41 -150 0
-42 -151 0
-43 -155 0
-41 -165 0
-42 -161 0
-41 -166 0
-45 -168 0
-41 -171 0
-43 -171 0
-42 -176 0
-45 -178 0
-45 -184 0
-41 -181 0
-44 -187 0
-43 -187 0
-43 -194 0
-42 -194 0
-43 -200 0
-42 -198 0
-42 -204 0
-43 -203 0
-42 -206 0
-45 -210 0
-43 -214 0
-43 -213 0
-43 -220 0
-44 -216 0
-41 -225 0
-42 -225 0
-43 -226 0
-42 -227 0
-42 -234 0
-44 -235 0
-43 -237 0
-42 -237 0
-45 -244 0
-41 -244 0
-42 -250 0
-41 -247 0
-47 -54 0
-47 -51 0
-47 -60 0
-47 -58 0
-47 -61 0
-48 -61 0
-48 -70 0
-47 -70 0
-47 -72 0
-46 -74 0
-48 -76 0
-50 -77 0
-49 -85 0
-47 -83 0
-48 -86 0
-50 -88 0
-50 -92 0
-50 -91 0
-48 -96 0
-46 -97 0
-50 -104 0
-47 -102 0
-50 -117 0
-49 -116 0
-47 -124 0
-50 -121 0
-49 -126 0
-47 -129 0
-49 -134 0
-47 -132 0
-46 -136 0
-48 -137 0
-46 -144 0
-50 -144 0
-48 -146 0
-47 -147 0
-47 -155 0
-49 -151 0
-47 -158 0
-49 -159 0
-50 -164 0
-48 -162 0
-46 -167 0
-47 -166 0
-46 -175 0
-46 -172 0
-47 -176 0
-49 -176 0
-47 -185 0
-48 -182 0
-47 -188 0
-49 -186 0
-47 -191 0
-49 -193 0
-46 -199 0
-47 -197 0
-49 -203 0
-47 -205 0
-47 -210 0
-46 -210 0
-48 -220 0
-48 -218 0
-50 -223 0
-48 -224 0
-50 -227 0
-50 -228 0
-48 -231 0
-50 -232 0
-47 -236 0
-49 -236 0
-50 -246 0
-46 -250 0
-54 -70 0
-53 -68 0
-53 -75 0
-55 -74 0
-54 -77 0
-53 -79 0
-55 -83 0
-52 -81 0
-55 -90 0
-51 -90 0
-55 -97 0
-53 -96 0
-52 -105 0
-51 -101 0
-53 -108 0
-51 -106 0
-52 -115 0
-53 -113 0
-51 -118 0
-55 -119 0
-51 -124 0
-54 -125 0
-54 -129 0
-54 -126 0
-54 -131 0
-52 -132 0
-53 -137 0
-53 -139 0
-53 -141 0
-55 -141 0
-51 -149 0
-54 -150 0
-54 -157 0
-51 -159 0
-54 -161 0
-52 -163 0
-51 -167 0
-55 -170 0
-53 -175 0
-55 -171 0
-53 -179 0
-54 -179 0
-53 -181 0
-54 -182 0
-55 -188 0
-51 -187 0
-53 -200 0
-53 -199 0
-55 -204 0
-52 -204 0
-54 -206 0
-52 -210 0
-51 -212 0
-54 -214 0
-55 -222 0
-53 -221 0
-51 -229 0
-52 -227 0
-52 -232 0
-52 -233 0
-52 -238 0
-51 -238 0
-52 -242 0
-51 -242 0
-52 -247 0
-55 -247 0
-58 -62 0
-57 -63 0
-57 -66 0
-57 -67 0
-57 -75 0
-60 -74 0
-57 -77 0
-58 -78 0
-57 -83 0
-59 -82 0
-56 -87 0
-59 -89 0
-56 -91 0
-59 -91 0
-58 -99 0
-56 -100 0
-60 -102 0
-59 -101 0
-59 -109 0
-57 -106 0
-58 -114 0
-59 -115 0
-58 -116 0
-60 -118 0
-60 -121 0
-57 -125 0
-60 -126 0
-57 -126 0
-56 -132 0
-58 -133 0
-60 -136 0
-59 -139 0
-60 -147 0
-57 -147 0
-58 -153 0
-59 -152 0
-60 -156 0
-60 -160 0
-57 -161 0
-57 -164 0
-58 -167 0
-57 -166 0
-60 -174 0
-59 -172 0
-60 -179 0
-58 -178 0
-60 -181 0
-59 -181 0
-59 -186 0
-60 -190 0
-60 -191 0
-59 -191 0
-59 -200 0
-57 -199 0
-58 -202 0
-60 -201 0
-60 -206 0
-56 -209 0
-58 -215 0
-59 -213 0
-59 -219 0
-58 -219 0
-59 -221 0
-60 -224 0
-57 -226 0
-57 -230 0
-60 -235 0
-56 -232 0
-58 -236 0
-58 -237 0
-63 -67 0
-61 -68 0
-65 -76 0
-65 -78 0
-62 -82 0
-63 -81 0
-63 -86 0
-61 -87 0
-65 -94 0
-64 -95 0
-61 -98 0
-65 -100 0
-64 -108 0
-63 -108 0
-62 -115 0
-61 -113 0
-63 -118 0
-61 -116 0
-65 -128 0
-64 -130 0
-61 -134 0
-64 -133 0
-65 -140 0
-63 -139 0
-64 -144 0
-61 -141 0
-61 -150 0
-64 -148 0
-63 -152 0
-63 -151 0
-61 -158 0
-62 -158 0
-63 -164 0
-63 -161 0
-63 -169 0
-63 -170 0
-61 -175 0
-61 -174 0
-65 -177 0
-62 -179 0
-63 -182 0
-63 -185 0
-63 -195 0
-61 -195 0
-65 -200 0
-61 -198 0
-61 -205 0
-61 -202 0
-62 -208 0
-63 -210 0
-65 -215 0
-63 -212 0
-65 -220 0
-62 -219 0
-63 -225 0
-65 -221 0
-62 -232 0
-63 -235 0
-65 -237 0
-61 -236 0
-63 -243 0
-61 -245 0
-65 -247 0
-64 -249 0
-66 -75 0
-68 -72 0
-67 -85 0
-69 -83 0
-70 -88 0
-70 -90 0
-67 -95 0
-69 -94 0
-68 -102 0
-70 -104 0
-69 -108 0
-70 -110 0
-67 -111 0
-66 -113 0
-68 -118 0
-66 -120 0
-70 -123 0
-67 -123 0
-69 -126 0
-66 -126 0
-66 -133 0
-66 -131 0
-69 -142 0
-68 -142 0
-69 -146 0
-69 -150 0
-67 -154 0
-66 -152 0
-67 -160 0
-69 -158 0
-70 -163 0
-70 -162 0
-67 -171 0
-67 -175 0
-69 -177 0
-66 -176 0
-70 -184 0
-69 -185 0
-66 -190 0
-69 -187 0
-70 -194 0
-69 -193 0
-67 -198 0
-67 -197 0
-69 -201 0
-66 -201 0
-69 -210 0
-70 -209 0
-68 -213 0
-66 -213 0
-66 -219 0
-70 -220 0
-69 -224 0
-68 -221 0
-66 -229 0
-69 -227 0
-69 -233 0
-69 -235 0
-69 -240 0
-70 -238 0
-70 -241 0
-67 -241 0
-72 -78 0
-75 -77 0
-75 -84 0
-71 -81 0
-74 -87 0
-74 -86 0
-74 -94 0
-75 -95 0
-74 -100 0
-71 -98 0
-71 -105 0
-74 -102 0
-73 -106 0
-73 -107 0
-71 -115 0
-71 -114 0
-73 -125 0
-74 -125 0
-72 -129 0
-73 -130 0
-71 -132 0
-74 -133 0
-71 -140 0
-71 -137 0
-75 -141 0
-73 -143 0
-74 -147 0
-75 -147 0
-75 -154 0
-75 -155 0
-74 -160 0
-75 -158 0
-73 -161 0
-71 -162 0
-72 -166 0
-73 -167 0
-74 -171 0
-74 -173 0
-73 -176 0
-73 -179 0
-71 -181 0
-74 -183 0
-74 -187 0
-73 -189 0
-74 -193 0
-74 -194 0
-72 -196 0
-75 -200 0
-74 -202 0
-75 -202 0
-73 -210 0
-73 -209 0
-75 -214 0
-72 -212 0
-72 -219 0
-71 -218 0
-71 -224 0
-75 -225 0
-71 -230 0
-72 -226 0
-71 -231 0
-75 -233 0
-72 -236 0
-75 -238 0
-71 -243 0
-74 -242 0
-74 -250 0
-72 -248 0
-79 -81 0
-77 -85 0
-78 -89 0
-77 -88 0
-79 -95 0
-77 -92 0
-79 -98 0
-78 -96 0
-79 -104 0
-76 -102 0
-77 -107 0
-80 -109 0
-79 -111 0
-80 -112 0
-77 -117 0
-76 -119 0
-80 -124 0
-80 -123 0
-79 -129 0
-79 -128 0
-79 -133 0
-76 -135 0
-78 -136 0
-79 -136 0
-78 -142 0
-77 -141 0
-79 -148 0
-76 -148 0
-80 -155 0
-79 -152 0
-78 -159 0
-76 -159 0
-78 -164 0
-79 -161 0
-78 -168 0
-80 -166 0
-79 -174 0
-79 -172 0
-79 -179 0
-76 -180 0
-80 -185 0
-78 -181 0
-77 -189 0
-76 -187 0
-79 -191 0
-78 -193 0
-77 -200 0
-76 -197 0
-80 -201 0
-77 -204 0
-76 -207 0
-76 -206 0
-76 -215 0
-80 -214 0
-77 -216 0
-78 -216 0
-79 -222 0
-79 -223 0
-76 -227 0
-76 -226 0
-77 -233 0
-78 -235 0
-77 -239 0
-76 -240 0
-77 -241 0
-76 -241 0
-78 -249 0
-76 -248 0
-81 -86 0
-83 -89 0
-81 -92 0
-84 -91 0
-84 -98 0
-84 -99 0
-81 -103 0
-83 -101 0
-82 -108 0
-81 -108 0
-84 -114 0
-84 -113 0
-82 -122 0
-83 -123 0
-83 -128 0
-81 -128 0
-84 -131 0
-84 -132 0
-83 -139 0
-82 -136 0
-84 -144 0
-84 -141 0
-81 -147 0
-82 -150 0
-85 -164 0
-81 -164 0
-81 -170 0
-82 -169 0
-81 -177 0
-84 -177 0
-85 -185 0
-83 -185 0
-83 -189 0
-82 -189 0
-82 -193 0
-82 -191 0
-84 -197 0
-83 -196 0
-82 -208 0
-81 -210 0
-81 -220 0
-83 -216 0
-84 -222 0
-85 -224 0
-82 -228 0
-81 -228 0
-84 -235 0
-83 -234 0
-83 -236 0
-83 -239 0
-83 -250 0
-83 -246 0
-89 -91 0
-87 -94 0
-87 -96 0
-90 -97 0
-89 -104 0
-90 -103 0
-89 -106 0
-88 -109 0
-87 -114 0
-89 -112 0
-87 -117 0
-87 -118 0
-86 -122 0
-87 -123 0
-86 -129 0
-87 -128 0
-90 -142 0
-88 -145 0
-87 -147 0
-89 -149 0
-89 -152 0
-87 -154 0
-86 -160 0
-88 -160 0
-88 -163 0
-89 -161 0
-87 -168 0
-90 -170 0
-89 -173 0
-90 -171 0
-88 -180 0
-87 -178 0
-88 -181 0
-88 -184 0
-90 -188 0
-86 -189 0
-88 -193 0
-89 -191 0
-89 -202 0
-86 -204 0
-87 -208 0
-86 -209 0
-90 -222 0
-88 -223 0
-87 -237 0
-86 -240 0
-86 -242 0
-87 -242 0
-89 -246 0
-86 -250 0
-94 -96 0
-93 -97 0
-91 -101 0
-95 -101 0
-94 -110 0
-93 -106 0
-92 -112 0
-92 -111 0
-94 -120 0
-93 -117 0
-91 -123 0
-93 -125 0
-95 -130 0
-92 -129 0
-94 -135 0
-94 -134 0
-91 -137 0
-95 -136 0
-94 -144 0
-93 -141 0
-93 -150 0
-91 -146 0
-91 -155 0
-95 -152 0
-94 -157 0
-91 -160 0
-91 -163 0
-94 -162 0
-93 -180 0
-95 -180 0
-95 -182 0
-92 -183 0
-93 -188 0
-94 -189 0
-93 -194 0
-92 -191 0
-94 -198 0
-91 -200 0
-93 -205 0
-94 -205 0
-91 -210 0
-91 -206 0
-92 -211 0
-94 -213 0
-91 -219 0
-92 -220 0
-94 -221 0
-92 -223 0
-91 -227 0
-93 -227 0
-95 -235 0
-95 -231 0
-91 -238 0
-92 -239 0
-95 -241 0
-91 -245 0
-93 -247 0
-95 -250 0
-100 -101 0
-97 -103 0
-98 -110 0
-97 -108 0
-96 -112 0
-99 -111 0
-98 -119 0
-99 -118 0
-97 -121 0
-97 -123 0
-98 -128 0
-96 -129 0
-96 -131 0
-98 -132 0
-100 -141 0
-96 -143 0
-97 -155 0
-99 -155 0
-98 -159 0
-96 -158 0
-96 -164 0
-97 -164 0
-98 -168 0
-97 -170 0
-96 -171 0
-100 -175 0
-100 -178 0
-97 -177 0
-100 -182 0
-97 -183 0
-100 -200 0
-100 -197 0
-100 -204 0
-96 -201 0
-98 -207 0
-96 -209 0
-98 -218 0
-97 -216 0
-97 -225 0
-99 -221 0
-97 -234 0
-96 -232 0
-98 -244 0
-97 -244 0
-105 -110 0
-102 -109 0
-105 -112 0
-101 -113 0
-103 -117 0
-101 -116 0
-101 -125 0
-102 -124 0
-105 -129 0
-103 -130 0
-104 -134 0
-104 -132 0
-103 -138 0
-102 -139 0
-104 -144 0
-105 -141 0
-102 -149 0
-105 -147 0
-101 -156 0
-101 -160 0
-101 -165 0
-105 -164 0
-101 -170 0
-105 -168 0
-103 -175 0
-104 -171 0
-104 -179 0
-101 -179 0
-105 -183 0
-105 -185 0
-104 -189 0
-105 -187 0
-102 -192 0
-103 -192 0
-101 -197 0
-105 -196 0
-103 -201 0
-103 -205 0
-103 -206 0
-105 -208 0
-102 -216 0
-102 -220 0
-103 -225 0
-102 -224 0
-102 -228 0
-103 -229 0
-104 -232 0
-101 -231 0
-104 -237 0
-102 -236 0
-103 -244 0
-101 -244 0
-103 -250 0
-102 -247 0
-107 -113 0
-108 -113 0
-108 -120 0
-106 -116 0
-107 -122 0
-106 -123 0
-108 -129 0
-110 -128 0
-110 -133 0
-106 -135 0
-109 -139 0
-110 -136 0
-108 -142 0
-106 -143 0
-109 -148 0
-107 -147 0
-110 -153 0
-110 -151 0
-108 -159 0
-107 -156 0
-108 -163 0
-110 -162 0
-106 -166 0
-108 -169 0
-106 -174 0
-106 -173 0
-107 -180 0
-110 -180 0
-108 -184 0
-108 -183 0
-108 -190 0
-107 -188 0
-107 -195 0
-106 -194 0
-108 -196 0
-109 -197 0
-107 -203 0
-106 -202 0
-108 -210 0
-107 -207 0
-110 -212 0
-108 -214 0
-109 -219 0
-106 -216 0
-106 -224 0
-109 -224 0
-107 -228 0
-108 -228 0
-106 -233 0
-110 -235 0
-110 -239 0
-109 -240 0
-109 -250 0
-110 -248 0
-112 -116 0
-114 -117 0
-115 -123 0
-111 -122 0
-112 -127 0
-114 -128 0
-114 -135 0
-112 -134 0
-115 -140 0
-114 -140 0
-115 -143 0
-111 -144 0
-115 -147 0
-114 -148 0
-115 -152 0
-115 -155 0
-113 -159 0
-111 -159 0
-111 -162 0
-111 -163 0
-114 -169 0
-115 -168 0
-111 -172 0
-113 -172 0
-111 -177 0
-115 -176 0
-111 -184 0
-113 -182 0
-115 -190 0
-114 -187 0
-113 -195 0
-111 -191 0
-115 -200 0
-111 -196 0
-114 -204 0
-111 -205 0
-112 -209 0
-114 -207 0
-112 -215 0
-113 -211 0
-113 -220 0
-113 -219 0
-112 -227 0
-113 -226 0
-113 -233 0
-111 -231 0
-114 -239 0
-115 -239 0
-114 -243 0
-115 -243 0
-115 -248 0
-114 -250 0
-119 -121 0
-118 -125 0
-117 -129 0
-117 -126 0
-118 -132 0
-117 -134 0
-120 -140 0
-116 -139 0
-116 -141 0
-116 -142 0
-117 -149 0
-120 -150 0
-120 -152 0
-120 -153 0
-119 -159 0
-118 -159 0
-120 -161 0
-116 -164 0
-120 -166 0
-116 -168 0
-119 -174 0
-119 -175 0
-117 -180 0
-119 -176 0
-119 -182 0
-119 -184 0
-118 -189 0
-118 -186 0
-119 -197 0
-117 -198 0
-116 -204 0
-120 -204 0
-118 -207 0
-119 -207 0
-119 -212 0
-117 -213 0
-116 -219 0
-118 -218 0
-118 -225 0
-116 -222 0
-117 -226 0
-119 -230 0
-117 -234 0
-117 -233 0
-116 -236 0
-118 -238 0
-117 -245 0
-116 -241 0
-116 -250 0
-119 -250 0
-121 -128 0
-123 -130 0
-124 -132 0
-124 -134 0
-122 -141 0
-125 -144 0
-125 -147 0
-122 -146 0
-125 -154 0
-121 -154 0
-121 -158 0
-122 -160 0
-124 -161 0
-125 -162 0
-122 -167 0
-123 -170 0
-124 -171 0
-123 -172 0
-124 -177 0
-124 -178 0
-125 -184 0
-121 -183 0
-123 -197 0
-123 -198 0
-121 -204 0
-122 -202 0
-125 -206 0
-121 -210 0
-122 -213 0
-121 -215 0
-122 -220 0
-123 -217 0
-122 -222 0
-123 -225 0
-123 -228 0
-125 -226 0
-122 -231 0
-123 -232 0
-124 -240 0
-124 -236 0
-125 -243 0
-125 -245 0
-122 -246 0
-121 -248 0
-126 -131 0
-128 -133 0
-128 -136 0
-130 -137 0
-128 -142 0
-127 -142 0
-126 -149 0
-127 -147 0
-128 -154 0
-128 -153 0
-128 -157 0
-130 -158 0
-128 -162 0
-129 -163 0
-130 -168 0
-126 -169 0
-128 -173 0
-127 -173 0
-128 -176 0
-126 -178 0
-126 -183 0
-128 -182 0
-128 -190 0
-127 -186 0
-129 -193 0
-128 -193 0
-126 -196 0
-128 -198 0
-128 -201 0
-126 -201 0
-126 -206 0
-126 -210 0
-126 -214 0
-129 -214 0
-129 -219 0
-130 -219 0
-129 -225 0
-128 -221 0
-129 -227 0
-126 -227 0
-127 -235 0
-128 -233 0
-130 -244 0
-128 -241 0
-127 -250 0
-128 -247 0
-133 -136 0
-133 -137 0
-131 -147 0
-133 -146 0
-135 -155 0
-134 -153 0
-134 -159 0
-131 -159 0
-134 -161 0
-132 -162 0
-135 -168 0
-132 -170 0
-133 -171 0
-135 -175 0
-132 -180 0
-134 -179 0
-131 -181 0
-132 -182 0
-132 -188 0
-132 -187 0
-135 -198 0
-131 -196 0
-132 -204 0
-132 -201 0
-131 -210 0
-133 -206 0
-134 -211 0
-132 -213 0
-132 -217 0
-132 -218 0
-133 -225 0
-134 -225 0
-134 -228 0
-131 -228 0
-131 -234 0
-133 -231 0
-135 -237 0
-134 -238 0
-132 -243 0
-135 -243 0
-131 -250 0
-131 -248 0
-136 -141 0
-138 -144 0
-140 -150 0
-136 -148 0
-139 -151 0
-136 -154 0
-139 -160 0
-138 -160 0
-140 -163 0
-136 -162 0
-136 -167 0
-140 -170 0
-137 -177 0
-140 -178 0
-139 -185 0
-140 -181 0
-139 -190 0
-140 -189 0
-140 -193 0
-140 -195 0
-140 -198 0
-140 -196 0
-136 -201 0
-136 -203 0
-139 -209 0
-137 -207 0
-137 -211 0
-138 -215 0
-139 -224 0
-137 -221 0
-138 -228 0
-139 -227 0
-136 -232 0
-136 -231 0
-136 -239 0
-139 -237 0
-140 -242 0
-137 -245 0
-137 -246 0
-140 -248 0
-143 -150 0
-143 -148 0
-141 -155 0
-142 -152 0
-145 -156 0
-144 -157 0
-145 -165 0
-143 -162 0
-144 -169 0
-141 -170 0
-142 -173 0
-141 -174 0
-142 -178 0
-143 -180 0
-143 -181 0
-144 -181 0
-144 -187 0
-141 -186 0
-141 -194 0
-141 -192 0
-144 -200 0
-142 -197 0
-145 -204 0
-144 -202 0
-143 -209 0
-144 -208 0
-145 -215 0
-143 -214 0
-143 -217 0
-145 -216 0
-144 -222 0
-144 -221 0
-145 -228 0
-144 -226 0
-142 -237 0
-145 -237 0
-142 -241 0
-145 -245 0
-141 -249 0
-143 -246 0
-147 -154 0
-147 -153 0
-150 -159 0
-149 -158 0
-149 -168 0
-150 -166 0
-146 -174 0
-146 -171 0
-147 -176 0
-146 -177 0
-150 -181 0
-148 -184 0
-147 -186 0
-149 -190 0
-150 -192 0
-146 -194 0
-146 -199 0
-150 -197 0
-149 -205 0
-150 -202 0
-146 -207 0
-148 -208 0
-147 -215 0
-147 -212 0
-146 -225 0
-147 -221 0
-148 -229 0
-147 -226 0
-146 -232 0
-147 -233 0
-148 -236 0
-148 -237 0
-147 -241 0
-149 -245 0
-149 -248 0
-146 -247 0
-152 -157 0
-152 -160 0
-155 -162 0
-154 -165 0
-151 -170 0
-153 -168 0
-154 -179 0
-155 -179 0
-155 -183 0
-151 -185 0
-155 -187 0
-153 -186 0
-153 -192 0
-155 -193 0
-154 -200 0
-154 -198 0
-154 -204 0
-154 -201 0
-151 -207 0
-154 -209 0
-154 -213 0
-155 -213 0
-152 -225 0
-153 -223 0
-151 -231 0
-151 -234 0
-151 -236 0
-151 -240 0
-153 -242 0
-153 -244 0
-153 -248 0
-154 -246 0
-160 -162 0
-157 -164 0
-158 -167 0
-156 -169 0
-158 -172 0
-157 -175 0
-160 -185 0
-160 -184 0
-158 -188 0
-158 -189 0
-158 -195 0
-156 -193 0
-157 -199 0
-156 -198 0
-156 -201 0
-159 -205 0
-159 -209 0
-156 -207 0
-158 -211 0
-158 -213 0
-156 -223 0
-156 -225 0
-160 -227 0
-159 -227 0
-159 -231 0
-159 -232 0
-156 -237 0
-156 -236 0
-156 -245 0
-158 -241 0
-157 -249 0
-160 -247 0
-163 -167 0
-162 -167 0
-163 -173 0
-161 -173 0
-161 -176 0
-162 -178 0
-163 -182 0
-164 -181 0
-162 -188 0
-165 -189 0
-161 -193 0
-164 -195 0
-165 -200 0
-164 -196 0
-165 -208 0
-161 -208 0
-161 -213 0
-163 -212 0
-162 -218 0
-163 -219 0
-162 -225 0
-163 -222 0
-161 -226 0
-162 -230 0
-162 -233 0
-164 -235 0
-165 -237 0
-165 -240 0
-162 -244 0
-163 -241 0
-162 -247 0
-162 -250 0
-167 -178 0
-170 -178 0
-167 -185 0
-170 -185 0
-169 -189 0
-168 -189 0
-169 -195 0
-166 -194 0
-166 -196 0
-166 -199 0
-170 -203 0
-167 -205 0
-166 -214 0
-168 -211 0
-169 -216 0
-170 -217 0
-168 -222 0
-167 -224 0
-166 -230 0
-168 -229 0
-166 -231 0
-169 -235 0
-169 -239 0
-170 -238 0
-167 -243 0
-170 -244 0
-167 -248 0
-168 -247 0
-175 -178 0
-172 -178 0
-174 -184 0
-173 -185 0
-173 -186 0
-174 -190 0
-171 -191 0
-174 -193 0
-174 -199 0
-172 -200 0
-172 -205 0
-171 -205 0
-172 -225 0
-175 -221 0
-171 -226 0
-174 -229 0
-175 -240 0
-172 -239 0
-175 -242 0
-175 -241 0
-175 -250 0
-171 -247 0
-180 -185 0
-176 -185 0
-180 -190 0
-176 -188 0
-178 -195 0
-176 -193 0
-180 -198 0
-178 -198 0
-180 -202 0
-179 -205 0
-176 -210 0
-176 -206 0
-177 -213 0
-178 -211 0
-179 -218 0
-179 -220 0
-176 -221 0
-177 -225 0
-176 -227 0
-178 -229 0
-177 -231 0
-177 -233 0
-180 -238 0
-176 -237 0
-180 -244 0
-178 -241 0
-179 -248 0
-178 -248 0
-182 -187 0
-181 -190 0
-185 -193 0
-181 -195 0
-185 -202 0
-184 -202 0
-185 -210 0
-184 -208 0
-185 -213 0
-185 -212 0
-183 -217 0
-185 -216 0
-184 -228 0
-183 -226 0
-182 -233 0
-185 -234 0
-183 -236 0
-185 -240 0
-184 -241 0
-181 -242 0
-181 -247 0
-182 -246 0
-190 -192 0
-187 -192 0
-188 -201 0
-189 -201 0
-189 -212 0
-190 -214 0
-187 -220 0
-189 -217 0
-187 -223 0
-190 -223 0
-186 -228 0
-187 -229 0
-186 -233 0
-188 -235 0
-186 -238 0
-189 -239 0
-188 -243 0
-187 -245 0
-191 -204 0
-191 -201 0
-191 -206 0
-195 -207 0
-195 -214 0
-191 -214 0
-194 -218 0
-191 -217 0
-194 -222 0
-193 -223 0
-194 -232 0
-195 -235 0
-194 -237 0
-194 -236 0
-192 -241 0
-192 -245 0
-192 -247 0
-192 -246 0
-197 -205 0
-196 -202 0
-196 -209 0
-197 -209 0
-199 -213 0
-200 -212 0
-199 -217 0
-197 -217 0
-197 -222 0
-198 -221 0
-200 -230 0
-197 -228 0
-198 -235 0
-199 -233 0
-200 -240 0
-199 -236 0
-200 -245 0
-199 -241 0
-200 -248 0
-198 -249 0
-201 -208 0
-201 -206 0
-203 -212 0
-201 -215 0
-204 -218 0
-205 -219 0
-205 -223 0
-204 -221 0
-201 -230 0
-205 -230 0
-205 -235 0
-201 -234 0
-205 -239 0
-204 -240 0
-201 -249 0
-205 -250 0
-207 -212 0
-207 -213 0
-207 -220 0
-206 -216 0
-210 -221 0
-206 -221 0
-207 -230 0
-210 -230 0
-210 -234 0
-207 -234 0
-206 -236 0
-210 -240 0
-207 -241 0
-209 -241 0
-206 -250 0
-207 -246 0
-213 -220 0
-214 -217 0
-215 -222 0
-212 -225 0
-215 -229 0
-215 -227 0
-214 -232 0
-213 -233 0
-215 -237 0
-214 -240 0
-212 -245 0
-215 -241 0
-212 -250 0
-211 -249 0
-220 -224 0
-217 -223 0
-220 -227 0
-220 -226 0
-219 -232 0
-217 -235 0
-216 -240 0
-218 -239 0
-219 -241 0
-217 -242 0
-218 -248 0
-220 -250 0
-221 -226 0
-222 -229 0
-223 -233 0
-223 -232 0
-224 -237 0
-224 -236 0
-225 -245 0
-224 -245 0
-224 -246 0
-224 -248 0
-230 -235 0
-226 -233 0
-228 -240 0
-229 -237 0
-228 -244 0
-230 -243 0
-234 -240 0
-234 -236 0
-233 -245 0
-235 -241 0
-235 -248 0
-233 -246 0
-237 -244 0
-236 -245 0
-239 -249 0
-236 -246 0
-244 -247 0
-241 -246 0
